!PBE0 FREQ OPT def2-SVP 
* xyz 0 1
   O     -4.000000000000    0.000000000000    0.000000000000
   H     -2.973650000000    0.000000000000    0.000000000000
   H     -5.026350000000    0.000000000000    0.000000000000
*

