!B3LYP def2-SVP VERYTIGHTOPT FREQ CPCM(water)
%pal
nprocs 16
end
* xyz 1 1
   C        1.42595        0.54579       -0.06621
   C        1.23202       -0.75083        0.19371
   N       -0.03350       -1.26223        0.32139
   C       -1.16035       -0.50853        0.20103
   N       -1.03684        0.83831       -0.05387
   C        0.22580        1.37960       -0.20389
   O       -2.30847       -0.88269        0.29613
   O        0.22186        2.56700       -0.44722
   H        2.05878       -1.44956        0.31201
   H       -0.16666       -2.25433        0.51397
   H       -1.62671        1.09786       -0.84212
   H        2.39975        1.00504       -0.18005
   H       -1.54849        1.36077        0.65492
*