!B3LYP def2-SVP OPT FREQ
%pal
nprocs 16
end
* xyz -1 1
   C        1.33878        0.51508       -0.01708
   C        1.24526       -0.81240        0.09268
   N       -0.02415       -1.41966        0.11620
   C       -1.17237       -0.61743        0.00888
   N       -1.05625        0.71979       -0.10636
   C        0.13881        1.36406       -0.11760
   O       -2.19305       -1.27075        0.03788
   O        0.23534        2.57757       -0.20466
   H        2.15069       -1.41636        0.16463
   H       -1.89431        1.28315       -0.17534
   H        2.29444        1.03083       -0.03758
*