!MP2 OPT NUMFREQ def2-TZVP 
* xyz 0 1
   O       -4.00000        0.00000        0.00000
   H       -2.97365        0.00000        0.00000
   H       -3.99650       -0.97855        0.31165
*

